\ This file was automatically generated by Zimpl
\ set indice := {1, 2, 3};
\ param lucroProd[indice] := <1> 30, <2> 12, <3> 15;
\ var quantProd[indice] integer;
\ maximize lucro: sum<i> in indice :lucroProd[i] * quantProd[i];
\ subto tempoFresa: quantProd[1] + quantProd[2] + quantProd[3] <= 500;
\ subto tempoTorno: quantProd[1] + quantProd[2] <= 350;
\ subto tempoRetifica: quantProd[1] + quantProd[3] <= 150;
\ subto vendaProd3: quantProd[3] <= 20;
\Problem name: .\file.zpl
Maximize
 lucro:  +30 quantProd#1 +12 quantProd#2 +15 quantProd#3
Subject to
 tempoFresa_1:
  + quantProd#3 + quantProd#2 + quantProd#1 <= 500
 tempoTorno_1:
  + quantProd#2 + quantProd#1 <= 350
 tempoRetifica_1:
  + quantProd#3 + quantProd#1 <= 150
 vendaProd3_1:
  + quantProd#3 <= 20
Bounds
 0 <= quantProd#1 <= +inf
 0 <= quantProd#2 <= +inf
 0 <= quantProd#3 <= +inf
General
 quantProd#1
 quantProd#2
 quantProd#3
End
